log Si2O3.log
units                   electron                                                   
dimension               2                                                          
processors              * * *                                                      
boundary                p p p                                                      

#####################################################################              

variable time equal 25*0.02418884326                                               

#####################################################################              

#read data
atom_style              molecular                                                  
read_data               Results/Si2O3.data                                                  
timestep ${time}                                                                   

#####################################################################              

#potential                                                                         
include                 Results/PARM_Si2O3.lammps                                                

#####################################################################              

#outputs                                                                           
thermo                  0                                                       
thermo_style            custom step pe ke epair ebond etotal vol temp              

#####################################################################              

dump                    1 all custom 1000000000 Si2O3_dump.lammpstrj id element type x y z     
dump_modify             1 element O Si                                             
thermo_modify           line yaml                                                  

#####################################################################              

#initial minimisation                                                              

min_style               sd                                                         
minimize        1.0e-6 1.0e-6 1000000 10000000                                       

#####################################################################              

#write_data              Si2O3_results.dat                                              
#write_restart  C_results.rest                                                     
