pair_style tersoff
pair_coeff * * Results/BNC.tersoff C
