log C.log
units                   metal                                                   
dimension               2                                                          
processors              * * *                                                        
boundary                p p p                                                      

#####################################################################              

variable time equal 1800.0                                               

#####################################################################              

#read data
atom_style              atomic                                                  
read_data               Results/C.data                                                  
timestep 0.001                                                                   

#####################################################################              

#potential                                                                         
include                 Results/PARM_C.lammps                                                

#####################################################################              

#outputs                                                                           
thermo                  0                                                       
thermo_style            custom step pe ke epair ebond etotal vol temp              

#####################################################################              

dump                    1 all custom 1000000000 C_dump.lammpstrj id element type x y z     
dump_modify             1 element C                                             
thermo_modify           line yaml                                                  

#####################################################################              

#initial minimisation                                                              

min_style               sd                                                         
minimize        1.0e-6 0.0 1000000 10000000                                       

#####################################################################              

#write_data              C_results.dat                                              
#write_restart  C_results.rest                                                     
