pair_style lj/cut 4.965228931415713
pair_coeff * * 0.1 4.423516090271585 4.965228931415713
pair_modify shift yes
special_bonds lj 0.0 1.0 1.0
bond_style harmonic
bond_coeff 2 1.001 3.0405693345182674
bond_coeff 1 1.001 4.965228931415713
